benchmarks_vrp/CMT5/min_c/CMT5_4.vrp
NAME: CMT5_4
TYPE: CVRP
COMMENT: 1291.29 - Cluster Nr.4
DIMENSION: 8
CAPACITY: 200
EDGE_WEIGHT_TYPE: EUC_2D
NODE_COORD_TYPE: TWOD_COORDS
NODE_COORD_SECTION: 
2 35 35
3 8 52
4 8 56
8 2 60
5 5 64
7 6 68
1 2 48
6 9 56
DEPOT_SECTION: 
2
-1
DEMAND_SECTION: 
3 10
6 13
4 27
5 11
8 5
7 30
2 0
1 1
EOF
