benchmarks_vrp/CMT5/min_c/CMT5_4.tour
NAME: CMT5_4 solution
TYPE: TOUR
TOUR_SECTION:
2 1 8 5 7 6 4 3 -1
-1
EOF